3 3 2
30 2 18 1 62 2 9 0 99 1 39 2 98 1 2 0 41 2 73 0 47 2 22 1 37 0 86 2 42 1 89 0 28 2 43 1 85 2 79 1 17 0 6 2 95 1 68 0 94 2 94 1 69 0 6 1 79 2 78 1 65 
30 0 72 1 8 0 11 2 25 0 53 2 50 1 57 0 81 2 54 0 28 2 9 0 88 2 81 0 55 2 90 1 51 0 1 1 81 2 63 1 33 0 46 2 11 0 5 1 90 0 68 1 8 0 0 2 85 1 94 2 11 
30 0 92 1 39 2 32 1 6 2 14 1 16 0 13 1 6 2 70 0 21 1 3 0 82 1 38 2 57 0 79 2 97 0 18 2 46 0 54 1 83 2 8 1 47 0 72 2 99 0 44 1 37 0 11 1 3 0 65 2 55 

-------------
